p cnf 37 2232
1 2 3 4 5 6 7 0
-1 -2 0
-1 -3 0
-1 -4 0
-1 -5 0
-1 -6 0
-1 -7 0
-2 -3 0
-2 -4 0
-2 -5 0
-2 -6 0
-2 -7 0
-3 -4 0
-3 -5 0
-3 -6 0
-3 -7 0
-4 -5 0
-4 -6 0
-4 -7 0
-5 -6 0
-5 -7 0
-6 -7 0
8 9 10 11 12 13 14 0
-8 -9 0
-8 -10 0
-8 -11 0
-8 -12 0
-8 -13 0
-8 -14 0
-9 -10 0
-9 -11 0
-9 -12 0
-9 -13 0
-9 -14 0
-10 -11 0
-10 -12 0
-10 -13 0
-10 -14 0
-11 -12 0
-11 -13 0
-11 -14 0
-12 -13 0
-12 -14 0
-13 -14 0
15 16 17 18 19 20 21 0
-15 -16 0
-15 -17 0
-15 -18 0
-15 -19 0
-15 -20 0
-15 -21 0
-16 -17 0
-16 -18 0
-16 -19 0
-16 -20 0
-16 -21 0
-17 -18 0
-17 -19 0
-17 -20 0
-17 -21 0
-18 -19 0
-18 -20 0
-18 -21 0
-19 -20 0
-19 -21 0
-20 -21 0
22 23 24 25 26 27 28 0
-22 -23 0
-22 -24 0
-22 -25 0
-22 -26 0
-22 -27 0
-22 -28 0
-23 -24 0
-23 -25 0
-23 -26 0
-23 -27 0
-23 -28 0
-24 -25 0
-24 -26 0
-24 -27 0
-24 -28 0
-25 -26 0
-25 -27 0
-25 -28 0
-26 -27 0
-26 -28 0
-27 -28 0
29 30 31 32 33 34 35 0
-29 -30 0
-29 -31 0
-29 -32 0
-29 -33 0
-29 -34 0
-29 -35 0
-30 -31 0
-30 -32 0
-30 -33 0
-30 -34 0
-30 -35 0
-31 -32 0
-31 -33 0
-31 -34 0
-31 -35 0
-32 -33 0
-32 -34 0
-32 -35 0
-33 -34 0
-33 -35 0
-34 -35 0
-1 -15 -29 -36 0
-1 -15 -29 36 0
-1 -15 -30 -36 0
-1 -15 -30 36 0
-1 -15 -31 36 0
-1 -15 -32 -36 0
-1 -15 -32 36 0
-1 -15 -33 -36 0
-1 -15 -33 36 0
-1 -15 -34 -36 0
-1 -15 -34 36 0
-1 -15 -35 -36 0
-1 -15 -35 36 0
-2 -15 -29 -36 0
-2 -15 -29 36 0
-2 -15 -30 -36 0
-2 -15 -30 36 0
-2 -15 -31 -36 0
-2 -15 -31 36 0
-2 -15 -32 36 0
-2 -15 -33 -36 0
-2 -15 -33 36 0
-2 -15 -34 -36 0
-2 -15 -34 36 0
-2 -15 -35 -36 0
-2 -15 -35 36 0
-3 -15 -29 -36 0
-3 -15 -29 36 0
-3 -15 -30 -36 0
-3 -15 -30 36 0
-3 -15 -31 -36 0
-3 -15 -31 36 0
-3 -15 -32 -36 0
-3 -15 -32 36 0
-3 -15 -33 36 0
-3 -15 -34 -36 0
-3 -15 -34 36 0
-3 -15 -35 -36 0
-3 -15 -35 36 0
-4 -15 -29 -36 0
-4 -15 -29 36 0
-4 -15 -30 -36 0
-4 -15 -30 36 0
-4 -15 -31 -36 0
-4 -15 -31 36 0
-4 -15 -32 -36 0
-4 -15 -32 36 0
-4 -15 -33 -36 0
-4 -15 -33 36 0
-4 -15 -34 36 0
-4 -15 -35 -36 0
-4 -15 -35 36 0
-5 -15 -29 -36 0
-5 -15 -29 36 0
-5 -15 -30 -36 0
-5 -15 -30 36 0
-5 -15 -31 -36 0
-5 -15 -31 36 0
-5 -15 -32 -36 0
-5 -15 -32 36 0
-5 -15 -33 -36 0
-5 -15 -33 36 0
-5 -15 -34 -36 0
-5 -15 -34 36 0
-5 -15 -35 36 0
-6 -15 -29 -36 0
-6 -15 -29 36 0
-6 -15 -30 -36 0
-6 -15 -30 36 0
-6 -15 -31 -36 0
-6 -15 -31 36 0
-6 -15 -32 -36 0
-6 -15 -32 36 0
-6 -15 -33 -36 0
-6 -15 -33 36 0
-6 -15 -34 -36 0
-6 -15 -34 36 0
-6 -15 -35 -36 0
-6 -15 -35 36 0
-7 -15 -29 -36 0
-7 -15 -29 36 0
-7 -15 -30 -36 0
-7 -15 -30 36 0
-7 -15 -31 -36 0
-7 -15 -31 36 0
-7 -15 -32 -36 0
-7 -15 -32 36 0
-7 -15 -33 -36 0
-7 -15 -33 36 0
-7 -15 -34 -36 0
-7 -15 -34 36 0
-7 -15 -35 -36 0
-7 -15 -35 36 0
-1 -16 -29 -36 0
-1 -16 -29 36 0
-1 -16 -30 -36 0
-1 -16 -30 36 0
-1 -16 -31 -36 0
-1 -16 -31 36 0
-1 -16 -32 36 0
-1 -16 -33 -36 0
-1 -16 -33 36 0
-1 -16 -34 -36 0
-1 -16 -34 36 0
-1 -16 -35 -36 0
-1 -16 -35 36 0
-2 -16 -29 -36 0
-2 -16 -29 36 0
-2 -16 -30 -36 0
-2 -16 -30 36 0
-2 -16 -31 -36 0
-2 -16 -31 36 0
-2 -16 -32 -36 0
-2 -16 -32 36 0
-2 -16 -33 36 0
-2 -16 -34 -36 0
-2 -16 -34 36 0
-2 -16 -35 -36 0
-2 -16 -35 36 0
-3 -16 -29 -36 0
-3 -16 -29 36 0
-3 -16 -30 -36 0
-3 -16 -30 36 0
-3 -16 -31 -36 0
-3 -16 -31 36 0
-3 -16 -32 -36 0
-3 -16 -32 36 0
-3 -16 -33 -36 0
-3 -16 -33 36 0
-3 -16 -34 36 0
-3 -16 -35 -36 0
-3 -16 -35 36 0
-4 -16 -29 -36 0
-4 -16 -29 36 0
-4 -16 -30 -36 0
-4 -16 -30 36 0
-4 -16 -31 -36 0
-4 -16 -31 36 0
-4 -16 -32 -36 0
-4 -16 -32 36 0
-4 -16 -33 -36 0
-4 -16 -33 36 0
-4 -16 -34 -36 0
-4 -16 -34 36 0
-4 -16 -35 36 0
-5 -16 -29 -36 0
-5 -16 -29 36 0
-5 -16 -30 -36 0
-5 -16 -30 36 0
-5 -16 -31 -36 0
-5 -16 -31 36 0
-5 -16 -32 -36 0
-5 -16 -32 36 0
-5 -16 -33 -36 0
-5 -16 -33 36 0
-5 -16 -34 -36 0
-5 -16 -34 36 0
-5 -16 -35 -36 0
-5 -16 -35 36 0
-6 -16 -29 -36 0
-6 -16 -29 36 0
-6 -16 -30 -36 0
-6 -16 -30 36 0
-6 -16 -31 -36 0
-6 -16 -31 36 0
-6 -16 -32 -36 0
-6 -16 -32 36 0
-6 -16 -33 -36 0
-6 -16 -33 36 0
-6 -16 -34 -36 0
-6 -16 -34 36 0
-6 -16 -35 -36 0
-6 -16 -35 36 0
-7 -16 -29 -36 0
-7 -16 -29 36 0
-7 -16 -30 -36 0
-7 -16 -30 36 0
-7 -16 -31 -36 0
-7 -16 -31 36 0
-7 -16 -32 -36 0
-7 -16 -32 36 0
-7 -16 -33 -36 0
-7 -16 -33 36 0
-7 -16 -34 -36 0
-7 -16 -34 36 0
-7 -16 -35 -36 0
-7 -16 -35 36 0
-1 -17 -29 -36 0
-1 -17 -29 36 0
-1 -17 -30 -36 0
-1 -17 -30 36 0
-1 -17 -31 -36 0
-1 -17 -31 36 0
-1 -17 -32 -36 0
-1 -17 -32 36 0
-1 -17 -33 36 0
-1 -17 -34 -36 0
-1 -17 -34 36 0
-1 -17 -35 -36 0
-1 -17 -35 36 0
-2 -17 -29 -36 0
-2 -17 -29 36 0
-2 -17 -30 -36 0
-2 -17 -30 36 0
-2 -17 -31 -36 0
-2 -17 -31 36 0
-2 -17 -32 -36 0
-2 -17 -32 36 0
-2 -17 -33 -36 0
-2 -17 -33 36 0
-2 -17 -34 36 0
-2 -17 -35 -36 0
-2 -17 -35 36 0
-3 -17 -29 -36 0
-3 -17 -29 36 0
-3 -17 -30 -36 0
-3 -17 -30 36 0
-3 -17 -31 -36 0
-3 -17 -31 36 0
-3 -17 -32 -36 0
-3 -17 -32 36 0
-3 -17 -33 -36 0
-3 -17 -33 36 0
-3 -17 -34 -36 0
-3 -17 -34 36 0
-3 -17 -35 36 0
-4 -17 -29 -36 0
-4 -17 -29 36 0
-4 -17 -30 -36 0
-4 -17 -30 36 0
-4 -17 -31 -36 0
-4 -17 -31 36 0
-4 -17 -32 -36 0
-4 -17 -32 36 0
-4 -17 -33 -36 0
-4 -17 -33 36 0
-4 -17 -34 -36 0
-4 -17 -34 36 0
-4 -17 -35 -36 0
-4 -17 -35 36 0
-5 -17 -29 -36 0
-5 -17 -29 36 0
-5 -17 -30 -36 0
-5 -17 -30 36 0
-5 -17 -31 -36 0
-5 -17 -31 36 0
-5 -17 -32 -36 0
-5 -17 -32 36 0
-5 -17 -33 -36 0
-5 -17 -33 36 0
-5 -17 -34 -36 0
-5 -17 -34 36 0
-5 -17 -35 -36 0
-5 -17 -35 36 0
-6 -17 -29 -36 0
-6 -17 -29 36 0
-6 -17 -30 -36 0
-6 -17 -30 36 0
-6 -17 -31 -36 0
-6 -17 -31 36 0
-6 -17 -32 -36 0
-6 -17 -32 36 0
-6 -17 -33 -36 0
-6 -17 -33 36 0
-6 -17 -34 -36 0
-6 -17 -34 36 0
-6 -17 -35 -36 0
-6 -17 -35 36 0
-7 -17 -29 -36 0
-7 -17 -30 -36 0
-7 -17 -30 36 0
-7 -17 -31 -36 0
-7 -17 -31 36 0
-7 -17 -32 -36 0
-7 -17 -32 36 0
-7 -17 -33 -36 0
-7 -17 -33 36 0
-7 -17 -34 -36 0
-7 -17 -34 36 0
-7 -17 -35 -36 0
-7 -17 -35 36 0
-1 -18 -29 -36 0
-1 -18 -29 36 0
-1 -18 -30 -36 0
-1 -18 -30 36 0
-1 -18 -31 -36 0
-1 -18 -31 36 0
-1 -18 -32 -36 0
-1 -18 -32 36 0
-1 -18 -33 -36 0
-1 -18 -33 36 0
-1 -18 -34 36 0
-1 -18 -35 -36 0
-1 -18 -35 36 0
-2 -18 -29 -36 0
-2 -18 -29 36 0
-2 -18 -30 -36 0
-2 -18 -30 36 0
-2 -18 -31 -36 0
-2 -18 -31 36 0
-2 -18 -32 -36 0
-2 -18 -32 36 0
-2 -18 -33 -36 0
-2 -18 -33 36 0
-2 -18 -34 -36 0
-2 -18 -34 36 0
-2 -18 -35 36 0
-3 -18 -29 -36 0
-3 -18 -29 36 0
-3 -18 -30 -36 0
-3 -18 -30 36 0
-3 -18 -31 -36 0
-3 -18 -31 36 0
-3 -18 -32 -36 0
-3 -18 -32 36 0
-3 -18 -33 -36 0
-3 -18 -33 36 0
-3 -18 -34 -36 0
-3 -18 -34 36 0
-3 -18 -35 -36 0
-3 -18 -35 36 0
-4 -18 -29 -36 0
-4 -18 -29 36 0
-4 -18 -30 -36 0
-4 -18 -30 36 0
-4 -18 -31 -36 0
-4 -18 -31 36 0
-4 -18 -32 -36 0
-4 -18 -32 36 0
-4 -18 -33 -36 0
-4 -18 -33 36 0
-4 -18 -34 -36 0
-4 -18 -34 36 0
-4 -18 -35 -36 0
-4 -18 -35 36 0
-5 -18 -29 -36 0
-5 -18 -29 36 0
-5 -18 -30 -36 0
-5 -18 -30 36 0
-5 -18 -31 -36 0
-5 -18 -31 36 0
-5 -18 -32 -36 0
-5 -18 -32 36 0
-5 -18 -33 -36 0
-5 -18 -33 36 0
-5 -18 -34 -36 0
-5 -18 -34 36 0
-5 -18 -35 -36 0
-5 -18 -35 36 0
-6 -18 -29 -36 0
-6 -18 -30 -36 0
-6 -18 -30 36 0
-6 -18 -31 -36 0
-6 -18 -31 36 0
-6 -18 -32 -36 0
-6 -18 -32 36 0
-6 -18 -33 -36 0
-6 -18 -33 36 0
-6 -18 -34 -36 0
-6 -18 -34 36 0
-6 -18 -35 -36 0
-6 -18 -35 36 0
-7 -18 -29 -36 0
-7 -18 -29 36 0
-7 -18 -30 -36 0
-7 -18 -31 -36 0
-7 -18 -31 36 0
-7 -18 -32 -36 0
-7 -18 -32 36 0
-7 -18 -33 -36 0
-7 -18 -33 36 0
-7 -18 -34 -36 0
-7 -18 -34 36 0
-7 -18 -35 -36 0
-7 -18 -35 36 0
-1 -19 -29 -36 0
-1 -19 -29 36 0
-1 -19 -30 -36 0
-1 -19 -30 36 0
-1 -19 -31 -36 0
-1 -19 -31 36 0
-1 -19 -32 -36 0
-1 -19 -32 36 0
-1 -19 -33 -36 0
-1 -19 -33 36 0
-1 -19 -34 -36 0
-1 -19 -34 36 0
-1 -19 -35 36 0
-2 -19 -29 -36 0
-2 -19 -29 36 0
-2 -19 -30 -36 0
-2 -19 -30 36 0
-2 -19 -31 -36 0
-2 -19 -31 36 0
-2 -19 -32 -36 0
-2 -19 -32 36 0
-2 -19 -33 -36 0
-2 -19 -33 36 0
-2 -19 -34 -36 0
-2 -19 -34 36 0
-2 -19 -35 -36 0
-2 -19 -35 36 0
-3 -19 -29 -36 0
-3 -19 -29 36 0
-3 -19 -30 -36 0
-3 -19 -30 36 0
-3 -19 -31 -36 0
-3 -19 -31 36 0
-3 -19 -32 -36 0
-3 -19 -32 36 0
-3 -19 -33 -36 0
-3 -19 -33 36 0
-3 -19 -34 -36 0
-3 -19 -34 36 0
-3 -19 -35 -36 0
-3 -19 -35 36 0
-4 -19 -29 -36 0
-4 -19 -29 36 0
-4 -19 -30 -36 0
-4 -19 -30 36 0
-4 -19 -31 -36 0
-4 -19 -31 36 0
-4 -19 -32 -36 0
-4 -19 -32 36 0
-4 -19 -33 -36 0
-4 -19 -33 36 0
-4 -19 -34 -36 0
-4 -19 -34 36 0
-4 -19 -35 -36 0
-4 -19 -35 36 0
-5 -19 -29 -36 0
-5 -19 -30 -36 0
-5 -19 -30 36 0
-5 -19 -31 -36 0
-5 -19 -31 36 0
-5 -19 -32 -36 0
-5 -19 -32 36 0
-5 -19 -33 -36 0
-5 -19 -33 36 0
-5 -19 -34 -36 0
-5 -19 -34 36 0
-5 -19 -35 -36 0
-5 -19 -35 36 0
-6 -19 -29 -36 0
-6 -19 -29 36 0
-6 -19 -30 -36 0
-6 -19 -31 -36 0
-6 -19 -31 36 0
-6 -19 -32 -36 0
-6 -19 -32 36 0
-6 -19 -33 -36 0
-6 -19 -33 36 0
-6 -19 -34 -36 0
-6 -19 -34 36 0
-6 -19 -35 -36 0
-6 -19 -35 36 0
-7 -19 -29 -36 0
-7 -19 -29 36 0
-7 -19 -30 -36 0
-7 -19 -30 36 0
-7 -19 -31 -36 0
-7 -19 -32 -36 0
-7 -19 -32 36 0
-7 -19 -33 -36 0
-7 -19 -33 36 0
-7 -19 -34 -36 0
-7 -19 -34 36 0
-7 -19 -35 -36 0
-7 -19 -35 36 0
-1 -20 -29 -36 0
-1 -20 -29 36 0
-1 -20 -30 -36 0
-1 -20 -30 36 0
-1 -20 -31 -36 0
-1 -20 -31 36 0
-1 -20 -32 -36 0
-1 -20 -32 36 0
-1 -20 -33 -36 0
-1 -20 -33 36 0
-1 -20 -34 -36 0
-1 -20 -34 36 0
-1 -20 -35 -36 0
-1 -20 -35 36 0
-2 -20 -29 -36 0
-2 -20 -29 36 0
-2 -20 -30 -36 0
-2 -20 -30 36 0
-2 -20 -31 -36 0
-2 -20 -31 36 0
-2 -20 -32 -36 0
-2 -20 -32 36 0
-2 -20 -33 -36 0
-2 -20 -33 36 0
-2 -20 -34 -36 0
-2 -20 -34 36 0
-2 -20 -35 -36 0
-2 -20 -35 36 0
-3 -20 -29 -36 0
-3 -20 -29 36 0
-3 -20 -30 -36 0
-3 -20 -30 36 0
-3 -20 -31 -36 0
-3 -20 -31 36 0
-3 -20 -32 -36 0
-3 -20 -32 36 0
-3 -20 -33 -36 0
-3 -20 -33 36 0
-3 -20 -34 -36 0
-3 -20 -34 36 0
-3 -20 -35 -36 0
-3 -20 -35 36 0
-4 -20 -29 -36 0
-4 -20 -30 -36 0
-4 -20 -30 36 0
-4 -20 -31 -36 0
-4 -20 -31 36 0
-4 -20 -32 -36 0
-4 -20 -32 36 0
-4 -20 -33 -36 0
-4 -20 -33 36 0
-4 -20 -34 -36 0
-4 -20 -34 36 0
-4 -20 -35 -36 0
-4 -20 -35 36 0
-5 -20 -29 -36 0
-5 -20 -29 36 0
-5 -20 -30 -36 0
-5 -20 -31 -36 0
-5 -20 -31 36 0
-5 -20 -32 -36 0
-5 -20 -32 36 0
-5 -20 -33 -36 0
-5 -20 -33 36 0
-5 -20 -34 -36 0
-5 -20 -34 36 0
-5 -20 -35 -36 0
-5 -20 -35 36 0
-6 -20 -29 -36 0
-6 -20 -29 36 0
-6 -20 -30 -36 0
-6 -20 -30 36 0
-6 -20 -31 -36 0
-6 -20 -32 -36 0
-6 -20 -32 36 0
-6 -20 -33 -36 0
-6 -20 -33 36 0
-6 -20 -34 -36 0
-6 -20 -34 36 0
-6 -20 -35 -36 0
-6 -20 -35 36 0
-7 -20 -29 -36 0
-7 -20 -29 36 0
-7 -20 -30 -36 0
-7 -20 -30 36 0
-7 -20 -31 -36 0
-7 -20 -31 36 0
-7 -20 -32 -36 0
-7 -20 -33 -36 0
-7 -20 -33 36 0
-7 -20 -34 -36 0
-7 -20 -34 36 0
-7 -20 -35 -36 0
-7 -20 -35 36 0
-1 -21 -29 -36 0
-1 -21 -29 36 0
-1 -21 -30 -36 0
-1 -21 -30 36 0
-1 -21 -31 -36 0
-1 -21 -31 36 0
-1 -21 -32 -36 0
-1 -21 -32 36 0
-1 -21 -33 -36 0
-1 -21 -33 36 0
-1 -21 -34 -36 0
-1 -21 -34 36 0
-1 -21 -35 -36 0
-1 -21 -35 36 0
-2 -21 -29 -36 0
-2 -21 -29 36 0
-2 -21 -30 -36 0
-2 -21 -30 36 0
-2 -21 -31 -36 0
-2 -21 -31 36 0
-2 -21 -32 -36 0
-2 -21 -32 36 0
-2 -21 -33 -36 0
-2 -21 -33 36 0
-2 -21 -34 -36 0
-2 -21 -34 36 0
-2 -21 -35 -36 0
-2 -21 -35 36 0
-3 -21 -29 -36 0
-3 -21 -30 -36 0
-3 -21 -30 36 0
-3 -21 -31 -36 0
-3 -21 -31 36 0
-3 -21 -32 -36 0
-3 -21 -32 36 0
-3 -21 -33 -36 0
-3 -21 -33 36 0
-3 -21 -34 -36 0
-3 -21 -34 36 0
-3 -21 -35 -36 0
-3 -21 -35 36 0
-4 -21 -29 -36 0
-4 -21 -29 36 0
-4 -21 -30 -36 0
-4 -21 -31 -36 0
-4 -21 -31 36 0
-4 -21 -32 -36 0
-4 -21 -32 36 0
-4 -21 -33 -36 0
-4 -21 -33 36 0
-4 -21 -34 -36 0
-4 -21 -34 36 0
-4 -21 -35 -36 0
-4 -21 -35 36 0
-5 -21 -29 -36 0
-5 -21 -29 36 0
-5 -21 -30 -36 0
-5 -21 -30 36 0
-5 -21 -31 -36 0
-5 -21 -32 -36 0
-5 -21 -32 36 0
-5 -21 -33 -36 0
-5 -21 -33 36 0
-5 -21 -34 -36 0
-5 -21 -34 36 0
-5 -21 -35 -36 0
-5 -21 -35 36 0
-6 -21 -29 -36 0
-6 -21 -29 36 0
-6 -21 -30 -36 0
-6 -21 -30 36 0
-6 -21 -31 -36 0
-6 -21 -31 36 0
-6 -21 -32 -36 0
-6 -21 -33 -36 0
-6 -21 -33 36 0
-6 -21 -34 -36 0
-6 -21 -34 36 0
-6 -21 -35 -36 0
-6 -21 -35 36 0
-7 -21 -29 -36 0
-7 -21 -29 36 0
-7 -21 -30 -36 0
-7 -21 -30 36 0
-7 -21 -31 -36 0
-7 -21 -31 36 0
-7 -21 -32 -36 0
-7 -21 -32 36 0
-7 -21 -33 -36 0
-7 -21 -34 -36 0
-7 -21 -34 36 0
-7 -21 -35 -36 0
-7 -21 -35 36 0
-1 -8 -22 -36 -37 0
-1 -8 -22 -36 37 0
-2 -8 -22 -36 -37 0
-2 -8 -22 -36 37 0
-3 -8 -22 -36 37 0
-4 -8 -22 -36 -37 0
-4 -8 -22 -36 37 0
-5 -8 -22 -36 -37 0
-5 -8 -22 -36 37 0
-6 -8 -22 -36 -37 0
-6 -8 -22 -36 37 0
-7 -8 -22 -36 -37 0
-7 -8 -22 -36 37 0
-1 -8 -23 -36 -37 0
-1 -8 -23 -36 37 0
-2 -8 -23 -36 -37 0
-2 -8 -23 -36 37 0
-3 -8 -23 -36 -37 0
-3 -8 -23 -36 37 0
-4 -8 -23 -36 37 0
-5 -8 -23 -36 -37 0
-5 -8 -23 -36 37 0
-6 -8 -23 -36 -37 0
-6 -8 -23 -36 37 0
-7 -8 -23 -36 -37 0
-7 -8 -23 -36 37 0
-1 -8 -24 -36 -37 0
-1 -8 -24 -36 37 0
-2 -8 -24 -36 -37 0
-2 -8 -24 -36 37 0
-3 -8 -24 -36 -37 0
-3 -8 -24 -36 37 0
-4 -8 -24 -36 -37 0
-4 -8 -24 -36 37 0
-5 -8 -24 -36 37 0
-6 -8 -24 -36 -37 0
-6 -8 -24 -36 37 0
-7 -8 -24 -36 -37 0
-7 -8 -24 -36 37 0
-1 -8 -25 -36 -37 0
-1 -8 -25 -36 37 0
-2 -8 -25 -36 -37 0
-2 -8 -25 -36 37 0
-3 -8 -25 -36 -37 0
-3 -8 -25 -36 37 0
-4 -8 -25 -36 -37 0
-4 -8 -25 -36 37 0
-5 -8 -25 -36 -37 0
-5 -8 -25 -36 37 0
-6 -8 -25 -36 37 0
-7 -8 -25 -36 -37 0
-7 -8 -25 -36 37 0
-1 -8 -26 -36 -37 0
-1 -8 -26 -36 37 0
-2 -8 -26 -36 -37 0
-2 -8 -26 -36 37 0
-3 -8 -26 -36 -37 0
-3 -8 -26 -36 37 0
-4 -8 -26 -36 -37 0
-4 -8 -26 -36 37 0
-5 -8 -26 -36 -37 0
-5 -8 -26 -36 37 0
-6 -8 -26 -36 -37 0
-6 -8 -26 -36 37 0
-7 -8 -26 -36 37 0
-1 -8 -27 -36 -37 0
-1 -8 -27 -36 37 0
-2 -8 -27 -36 -37 0
-2 -8 -27 -36 37 0
-3 -8 -27 -36 -37 0
-3 -8 -27 -36 37 0
-4 -8 -27 -36 -37 0
-4 -8 -27 -36 37 0
-5 -8 -27 -36 -37 0
-5 -8 -27 -36 37 0
-6 -8 -27 -36 -37 0
-6 -8 -27 -36 37 0
-7 -8 -27 -36 -37 0
-7 -8 -27 -36 37 0
-1 -8 -28 -36 -37 0
-1 -8 -28 -36 37 0
-2 -8 -28 -36 -37 0
-2 -8 -28 -36 37 0
-3 -8 -28 -36 -37 0
-3 -8 -28 -36 37 0
-4 -8 -28 -36 -37 0
-4 -8 -28 -36 37 0
-5 -8 -28 -36 -37 0
-5 -8 -28 -36 37 0
-6 -8 -28 -36 -37 0
-6 -8 -28 -36 37 0
-7 -8 -28 -36 -37 0
-7 -8 -28 -36 37 0
-1 -9 -22 -36 -37 0
-1 -9 -22 -36 37 0
-2 -9 -22 -36 -37 0
-2 -9 -22 -36 37 0
-3 -9 -22 -36 -37 0
-3 -9 -22 -36 37 0
-4 -9 -22 -36 37 0
-5 -9 -22 -36 -37 0
-5 -9 -22 -36 37 0
-6 -9 -22 -36 -37 0
-6 -9 -22 -36 37 0
-7 -9 -22 -36 -37 0
-7 -9 -22 -36 37 0
-1 -9 -23 -36 -37 0
-1 -9 -23 -36 37 0
-2 -9 -23 -36 -37 0
-2 -9 -23 -36 37 0
-3 -9 -23 -36 -37 0
-3 -9 -23 -36 37 0
-4 -9 -23 -36 -37 0
-4 -9 -23 -36 37 0
-5 -9 -23 -36 37 0
-6 -9 -23 -36 -37 0
-6 -9 -23 -36 37 0
-7 -9 -23 -36 -37 0
-7 -9 -23 -36 37 0
-1 -9 -24 -36 -37 0
-1 -9 -24 -36 37 0
-2 -9 -24 -36 -37 0
-2 -9 -24 -36 37 0
-3 -9 -24 -36 -37 0
-3 -9 -24 -36 37 0
-4 -9 -24 -36 -37 0
-4 -9 -24 -36 37 0
-5 -9 -24 -36 -37 0
-5 -9 -24 -36 37 0
-6 -9 -24 -36 37 0
-7 -9 -24 -36 -37 0
-7 -9 -24 -36 37 0
-1 -9 -25 -36 -37 0
-1 -9 -25 -36 37 0
-2 -9 -25 -36 -37 0
-2 -9 -25 -36 37 0
-3 -9 -25 -36 -37 0
-3 -9 -25 -36 37 0
-4 -9 -25 -36 -37 0
-4 -9 -25 -36 37 0
-5 -9 -25 -36 -37 0
-5 -9 -25 -36 37 0
-6 -9 -25 -36 -37 0
-6 -9 -25 -36 37 0
-7 -9 -25 -36 37 0
-1 -9 -26 -36 -37 0
-1 -9 -26 -36 37 0
-2 -9 -26 -36 -37 0
-2 -9 -26 -36 37 0
-3 -9 -26 -36 -37 0
-3 -9 -26 -36 37 0
-4 -9 -26 -36 -37 0
-4 -9 -26 -36 37 0
-5 -9 -26 -36 -37 0
-5 -9 -26 -36 37 0
-6 -9 -26 -36 -37 0
-6 -9 -26 -36 37 0
-7 -9 -26 -36 -37 0
-7 -9 -26 -36 37 0
-1 -9 -27 -36 -37 0
-1 -9 -27 -36 37 0
-2 -9 -27 -36 -37 0
-2 -9 -27 -36 37 0
-3 -9 -27 -36 -37 0
-3 -9 -27 -36 37 0
-4 -9 -27 -36 -37 0
-4 -9 -27 -36 37 0
-5 -9 -27 -36 -37 0
-5 -9 -27 -36 37 0
-6 -9 -27 -36 -37 0
-6 -9 -27 -36 37 0
-7 -9 -27 -36 -37 0
-7 -9 -27 -36 37 0
-1 -9 -28 -36 -37 0
-1 -9 -28 -36 37 0
-2 -9 -28 -36 -37 0
-2 -9 -28 -36 37 0
-3 -9 -28 -36 -37 0
-3 -9 -28 -36 37 0
-4 -9 -28 -36 -37 0
-4 -9 -28 -36 37 0
-5 -9 -28 -36 -37 0
-5 -9 -28 -36 37 0
-6 -9 -28 -36 -37 0
-6 -9 -28 -36 37 0
-7 -9 -28 -36 -37 0
-7 -9 -28 -36 37 0
-1 -10 -22 -36 -37 0
-1 -10 -22 -36 37 0
-2 -10 -22 -36 -37 0
-2 -10 -22 -36 37 0
-3 -10 -22 -36 -37 0
-3 -10 -22 -36 37 0
-4 -10 -22 -36 -37 0
-4 -10 -22 -36 37 0
-5 -10 -22 -36 37 0
-6 -10 -22 -36 -37 0
-6 -10 -22 -36 37 0
-7 -10 -22 -36 -37 0
-7 -10 -22 -36 37 0
-1 -10 -23 -36 -37 0
-1 -10 -23 -36 37 0
-2 -10 -23 -36 -37 0
-2 -10 -23 -36 37 0
-3 -10 -23 -36 -37 0
-3 -10 -23 -36 37 0
-4 -10 -23 -36 -37 0
-4 -10 -23 -36 37 0
-5 -10 -23 -36 -37 0
-5 -10 -23 -36 37 0
-6 -10 -23 -36 37 0
-7 -10 -23 -36 -37 0
-7 -10 -23 -36 37 0
-1 -10 -24 -36 -37 0
-1 -10 -24 -36 37 0
-2 -10 -24 -36 -37 0
-2 -10 -24 -36 37 0
-3 -10 -24 -36 -37 0
-3 -10 -24 -36 37 0
-4 -10 -24 -36 -37 0
-4 -10 -24 -36 37 0
-5 -10 -24 -36 -37 0
-5 -10 -24 -36 37 0
-6 -10 -24 -36 -37 0
-6 -10 -24 -36 37 0
-7 -10 -24 -36 37 0
-1 -10 -25 -36 -37 0
-1 -10 -25 -36 37 0
-2 -10 -25 -36 -37 0
-2 -10 -25 -36 37 0
-3 -10 -25 -36 -37 0
-3 -10 -25 -36 37 0
-4 -10 -25 -36 -37 0
-4 -10 -25 -36 37 0
-5 -10 -25 -36 -37 0
-5 -10 -25 -36 37 0
-6 -10 -25 -36 -37 0
-6 -10 -25 -36 37 0
-7 -10 -25 -36 -37 0
-7 -10 -25 -36 37 0
-1 -10 -26 -36 -37 0
-1 -10 -26 -36 37 0
-2 -10 -26 -36 -37 0
-2 -10 -26 -36 37 0
-3 -10 -26 -36 -37 0
-3 -10 -26 -36 37 0
-4 -10 -26 -36 -37 0
-4 -10 -26 -36 37 0
-5 -10 -26 -36 -37 0
-5 -10 -26 -36 37 0
-6 -10 -26 -36 -37 0
-6 -10 -26 -36 37 0
-7 -10 -26 -36 -37 0
-7 -10 -26 -36 37 0
-1 -10 -27 -36 -37 0
-1 -10 -27 -36 37 0
-2 -10 -27 -36 -37 0
-2 -10 -27 -36 37 0
-3 -10 -27 -36 -37 0
-3 -10 -27 -36 37 0
-4 -10 -27 -36 -37 0
-4 -10 -27 -36 37 0
-5 -10 -27 -36 -37 0
-5 -10 -27 -36 37 0
-6 -10 -27 -36 -37 0
-6 -10 -27 -36 37 0
-7 -10 -27 -36 -37 0
-7 -10 -27 -36 37 0
-1 -10 -28 -36 -37 0
-2 -10 -28 -36 -37 0
-2 -10 -28 -36 37 0
-3 -10 -28 -36 -37 0
-3 -10 -28 -36 37 0
-4 -10 -28 -36 -37 0
-4 -10 -28 -36 37 0
-5 -10 -28 -36 -37 0
-5 -10 -28 -36 37 0
-6 -10 -28 -36 -37 0
-6 -10 -28 -36 37 0
-7 -10 -28 -36 -37 0
-7 -10 -28 -36 37 0
-1 -11 -22 -36 -37 0
-1 -11 -22 -36 37 0
-2 -11 -22 -36 -37 0
-2 -11 -22 -36 37 0
-3 -11 -22 -36 -37 0
-3 -11 -22 -36 37 0
-4 -11 -22 -36 -37 0
-4 -11 -22 -36 37 0
-5 -11 -22 -36 -37 0
-5 -11 -22 -36 37 0
-6 -11 -22 -36 37 0
-7 -11 -22 -36 -37 0
-7 -11 -22 -36 37 0
-1 -11 -23 -36 -37 0
-1 -11 -23 -36 37 0
-2 -11 -23 -36 -37 0
-2 -11 -23 -36 37 0
-3 -11 -23 -36 -37 0
-3 -11 -23 -36 37 0
-4 -11 -23 -36 -37 0
-4 -11 -23 -36 37 0
-5 -11 -23 -36 -37 0
-5 -11 -23 -36 37 0
-6 -11 -23 -36 -37 0
-6 -11 -23 -36 37 0
-7 -11 -23 -36 37 0
-1 -11 -24 -36 -37 0
-1 -11 -24 -36 37 0
-2 -11 -24 -36 -37 0
-2 -11 -24 -36 37 0
-3 -11 -24 -36 -37 0
-3 -11 -24 -36 37 0
-4 -11 -24 -36 -37 0
-4 -11 -24 -36 37 0
-5 -11 -24 -36 -37 0
-5 -11 -24 -36 37 0
-6 -11 -24 -36 -37 0
-6 -11 -24 -36 37 0
-7 -11 -24 -36 -37 0
-7 -11 -24 -36 37 0
-1 -11 -25 -36 -37 0
-1 -11 -25 -36 37 0
-2 -11 -25 -36 -37 0
-2 -11 -25 -36 37 0
-3 -11 -25 -36 -37 0
-3 -11 -25 -36 37 0
-4 -11 -25 -36 -37 0
-4 -11 -25 -36 37 0
-5 -11 -25 -36 -37 0
-5 -11 -25 -36 37 0
-6 -11 -25 -36 -37 0
-6 -11 -25 -36 37 0
-7 -11 -25 -36 -37 0
-7 -11 -25 -36 37 0
-1 -11 -26 -36 -37 0
-1 -11 -26 -36 37 0
-2 -11 -26 -36 -37 0
-2 -11 -26 -36 37 0
-3 -11 -26 -36 -37 0
-3 -11 -26 -36 37 0
-4 -11 -26 -36 -37 0
-4 -11 -26 -36 37 0
-5 -11 -26 -36 -37 0
-5 -11 -26 -36 37 0
-6 -11 -26 -36 -37 0
-6 -11 -26 -36 37 0
-7 -11 -26 -36 -37 0
-7 -11 -26 -36 37 0
-1 -11 -27 -36 -37 0
-2 -11 -27 -36 -37 0
-2 -11 -27 -36 37 0
-3 -11 -27 -36 -37 0
-3 -11 -27 -36 37 0
-4 -11 -27 -36 -37 0
-4 -11 -27 -36 37 0
-5 -11 -27 -36 -37 0
-5 -11 -27 -36 37 0
-6 -11 -27 -36 -37 0
-6 -11 -27 -36 37 0
-7 -11 -27 -36 -37 0
-7 -11 -27 -36 37 0
-1 -11 -28 -36 -37 0
-1 -11 -28 -36 37 0
-2 -11 -28 -36 -37 0
-3 -11 -28 -36 -37 0
-3 -11 -28 -36 37 0
-4 -11 -28 -36 -37 0
-4 -11 -28 -36 37 0
-5 -11 -28 -36 -37 0
-5 -11 -28 -36 37 0
-6 -11 -28 -36 -37 0
-6 -11 -28 -36 37 0
-7 -11 -28 -36 -37 0
-7 -11 -28 -36 37 0
-1 -12 -22 -36 -37 0
-1 -12 -22 -36 37 0
-2 -12 -22 -36 -37 0
-2 -12 -22 -36 37 0
-3 -12 -22 -36 -37 0
-3 -12 -22 -36 37 0
-4 -12 -22 -36 -37 0
-4 -12 -22 -36 37 0
-5 -12 -22 -36 -37 0
-5 -12 -22 -36 37 0
-6 -12 -22 -36 -37 0
-6 -12 -22 -36 37 0
-7 -12 -22 -36 37 0
-1 -12 -23 -36 -37 0
-1 -12 -23 -36 37 0
-2 -12 -23 -36 -37 0
-2 -12 -23 -36 37 0
-3 -12 -23 -36 -37 0
-3 -12 -23 -36 37 0
-4 -12 -23 -36 -37 0
-4 -12 -23 -36 37 0
-5 -12 -23 -36 -37 0
-5 -12 -23 -36 37 0
-6 -12 -23 -36 -37 0
-6 -12 -23 -36 37 0
-7 -12 -23 -36 -37 0
-7 -12 -23 -36 37 0
-1 -12 -24 -36 -37 0
-1 -12 -24 -36 37 0
-2 -12 -24 -36 -37 0
-2 -12 -24 -36 37 0
-3 -12 -24 -36 -37 0
-3 -12 -24 -36 37 0
-4 -12 -24 -36 -37 0
-4 -12 -24 -36 37 0
-5 -12 -24 -36 -37 0
-5 -12 -24 -36 37 0
-6 -12 -24 -36 -37 0
-6 -12 -24 -36 37 0
-7 -12 -24 -36 -37 0
-7 -12 -24 -36 37 0
-1 -12 -25 -36 -37 0
-1 -12 -25 -36 37 0
-2 -12 -25 -36 -37 0
-2 -12 -25 -36 37 0
-3 -12 -25 -36 -37 0
-3 -12 -25 -36 37 0
-4 -12 -25 -36 -37 0
-4 -12 -25 -36 37 0
-5 -12 -25 -36 -37 0
-5 -12 -25 -36 37 0
-6 -12 -25 -36 -37 0
-6 -12 -25 -36 37 0
-7 -12 -25 -36 -37 0
-7 -12 -25 -36 37 0
-1 -12 -26 -36 -37 0
-2 -12 -26 -36 -37 0
-2 -12 -26 -36 37 0
-3 -12 -26 -36 -37 0
-3 -12 -26 -36 37 0
-4 -12 -26 -36 -37 0
-4 -12 -26 -36 37 0
-5 -12 -26 -36 -37 0
-5 -12 -26 -36 37 0
-6 -12 -26 -36 -37 0
-6 -12 -26 -36 37 0
-7 -12 -26 -36 -37 0
-7 -12 -26 -36 37 0
-1 -12 -27 -36 -37 0
-1 -12 -27 -36 37 0
-2 -12 -27 -36 -37 0
-3 -12 -27 -36 -37 0
-3 -12 -27 -36 37 0
-4 -12 -27 -36 -37 0
-4 -12 -27 -36 37 0
-5 -12 -27 -36 -37 0
-5 -12 -27 -36 37 0
-6 -12 -27 -36 -37 0
-6 -12 -27 -36 37 0
-7 -12 -27 -36 -37 0
-7 -12 -27 -36 37 0
-1 -12 -28 -36 -37 0
-1 -12 -28 -36 37 0
-2 -12 -28 -36 -37 0
-2 -12 -28 -36 37 0
-3 -12 -28 -36 -37 0
-4 -12 -28 -36 -37 0
-4 -12 -28 -36 37 0
-5 -12 -28 -36 -37 0
-5 -12 -28 -36 37 0
-6 -12 -28 -36 -37 0
-6 -12 -28 -36 37 0
-7 -12 -28 -36 -37 0
-7 -12 -28 -36 37 0
-1 -13 -22 -36 -37 0
-1 -13 -22 -36 37 0
-2 -13 -22 -36 -37 0
-2 -13 -22 -36 37 0
-3 -13 -22 -36 -37 0
-3 -13 -22 -36 37 0
-4 -13 -22 -36 -37 0
-4 -13 -22 -36 37 0
-5 -13 -22 -36 -37 0
-5 -13 -22 -36 37 0
-6 -13 -22 -36 -37 0
-6 -13 -22 -36 37 0
-7 -13 -22 -36 -37 0
-7 -13 -22 -36 37 0
-1 -13 -23 -36 -37 0
-1 -13 -23 -36 37 0
-2 -13 -23 -36 -37 0
-2 -13 -23 -36 37 0
-3 -13 -23 -36 -37 0
-3 -13 -23 -36 37 0
-4 -13 -23 -36 -37 0
-4 -13 -23 -36 37 0
-5 -13 -23 -36 -37 0
-5 -13 -23 -36 37 0
-6 -13 -23 -36 -37 0
-6 -13 -23 -36 37 0
-7 -13 -23 -36 -37 0
-7 -13 -23 -36 37 0
-1 -13 -24 -36 -37 0
-1 -13 -24 -36 37 0
-2 -13 -24 -36 -37 0
-2 -13 -24 -36 37 0
-3 -13 -24 -36 -37 0
-3 -13 -24 -36 37 0
-4 -13 -24 -36 -37 0
-4 -13 -24 -36 37 0
-5 -13 -24 -36 -37 0
-5 -13 -24 -36 37 0
-6 -13 -24 -36 -37 0
-6 -13 -24 -36 37 0
-7 -13 -24 -36 -37 0
-7 -13 -24 -36 37 0
-1 -13 -25 -36 -37 0
-2 -13 -25 -36 -37 0
-2 -13 -25 -36 37 0
-3 -13 -25 -36 -37 0
-3 -13 -25 -36 37 0
-4 -13 -25 -36 -37 0
-4 -13 -25 -36 37 0
-5 -13 -25 -36 -37 0
-5 -13 -25 -36 37 0
-6 -13 -25 -36 -37 0
-6 -13 -25 -36 37 0
-7 -13 -25 -36 -37 0
-7 -13 -25 -36 37 0
-1 -13 -26 -36 -37 0
-1 -13 -26 -36 37 0
-2 -13 -26 -36 -37 0
-3 -13 -26 -36 -37 0
-3 -13 -26 -36 37 0
-4 -13 -26 -36 -37 0
-4 -13 -26 -36 37 0
-5 -13 -26 -36 -37 0
-5 -13 -26 -36 37 0
-6 -13 -26 -36 -37 0
-6 -13 -26 -36 37 0
-7 -13 -26 -36 -37 0
-7 -13 -26 -36 37 0
-1 -13 -27 -36 -37 0
-1 -13 -27 -36 37 0
-2 -13 -27 -36 -37 0
-2 -13 -27 -36 37 0
-3 -13 -27 -36 -37 0
-4 -13 -27 -36 -37 0
-4 -13 -27 -36 37 0
-5 -13 -27 -36 -37 0
-5 -13 -27 -36 37 0
-6 -13 -27 -36 -37 0
-6 -13 -27 -36 37 0
-7 -13 -27 -36 -37 0
-7 -13 -27 -36 37 0
-1 -13 -28 -36 -37 0
-1 -13 -28 -36 37 0
-2 -13 -28 -36 -37 0
-2 -13 -28 -36 37 0
-3 -13 -28 -36 -37 0
-3 -13 -28 -36 37 0
-4 -13 -28 -36 -37 0
-5 -13 -28 -36 -37 0
-5 -13 -28 -36 37 0
-6 -13 -28 -36 -37 0
-6 -13 -28 -36 37 0
-7 -13 -28 -36 -37 0
-7 -13 -28 -36 37 0
-1 -14 -22 -36 -37 0
-1 -14 -22 -36 37 0
-2 -14 -22 -36 -37 0
-2 -14 -22 -36 37 0
-3 -14 -22 -36 -37 0
-3 -14 -22 -36 37 0
-4 -14 -22 -36 -37 0
-4 -14 -22 -36 37 0
-5 -14 -22 -36 -37 0
-5 -14 -22 -36 37 0
-6 -14 -22 -36 -37 0
-6 -14 -22 -36 37 0
-7 -14 -22 -36 -37 0
-7 -14 -22 -36 37 0
-1 -14 -23 -36 -37 0
-1 -14 -23 -36 37 0
-2 -14 -23 -36 -37 0
-2 -14 -23 -36 37 0
-3 -14 -23 -36 -37 0
-3 -14 -23 -36 37 0
-4 -14 -23 -36 -37 0
-4 -14 -23 -36 37 0
-5 -14 -23 -36 -37 0
-5 -14 -23 -36 37 0
-6 -14 -23 -36 -37 0
-6 -14 -23 -36 37 0
-7 -14 -23 -36 -37 0
-7 -14 -23 -36 37 0
-1 -14 -24 -36 -37 0
-2 -14 -24 -36 -37 0
-2 -14 -24 -36 37 0
-3 -14 -24 -36 -37 0
-3 -14 -24 -36 37 0
-4 -14 -24 -36 -37 0
-4 -14 -24 -36 37 0
-5 -14 -24 -36 -37 0
-5 -14 -24 -36 37 0
-6 -14 -24 -36 -37 0
-6 -14 -24 -36 37 0
-7 -14 -24 -36 -37 0
-7 -14 -24 -36 37 0
-1 -14 -25 -36 -37 0
-1 -14 -25 -36 37 0
-2 -14 -25 -36 -37 0
-3 -14 -25 -36 -37 0
-3 -14 -25 -36 37 0
-4 -14 -25 -36 -37 0
-4 -14 -25 -36 37 0
-5 -14 -25 -36 -37 0
-5 -14 -25 -36 37 0
-6 -14 -25 -36 -37 0
-6 -14 -25 -36 37 0
-7 -14 -25 -36 -37 0
-7 -14 -25 -36 37 0
-1 -14 -26 -36 -37 0
-1 -14 -26 -36 37 0
-2 -14 -26 -36 -37 0
-2 -14 -26 -36 37 0
-3 -14 -26 -36 -37 0
-4 -14 -26 -36 -37 0
-4 -14 -26 -36 37 0
-5 -14 -26 -36 -37 0
-5 -14 -26 -36 37 0
-6 -14 -26 -36 -37 0
-6 -14 -26 -36 37 0
-7 -14 -26 -36 -37 0
-7 -14 -26 -36 37 0
-1 -14 -27 -36 -37 0
-1 -14 -27 -36 37 0
-2 -14 -27 -36 -37 0
-2 -14 -27 -36 37 0
-3 -14 -27 -36 -37 0
-3 -14 -27 -36 37 0
-4 -14 -27 -36 -37 0
-5 -14 -27 -36 -37 0
-5 -14 -27 -36 37 0
-6 -14 -27 -36 -37 0
-6 -14 -27 -36 37 0
-7 -14 -27 -36 -37 0
-7 -14 -27 -36 37 0
-1 -14 -28 -36 -37 0
-1 -14 -28 -36 37 0
-2 -14 -28 -36 -37 0
-2 -14 -28 -36 37 0
-3 -14 -28 -36 -37 0
-3 -14 -28 -36 37 0
-4 -14 -28 -36 -37 0
-4 -14 -28 -36 37 0
-5 -14 -28 -36 -37 0
-6 -14 -28 -36 -37 0
-6 -14 -28 -36 37 0
-7 -14 -28 -36 -37 0
-7 -14 -28 -36 37 0
-1 -8 -22 36 -37 0
-1 -8 -22 36 37 0
-2 -8 -22 36 -37 0
-2 -8 -22 36 37 0
-3 -8 -22 36 -37 0
-3 -8 -22 36 37 0
-4 -8 -22 36 37 0
-5 -8 -22 36 -37 0
-5 -8 -22 36 37 0
-6 -8 -22 36 -37 0
-6 -8 -22 36 37 0
-7 -8 -22 36 -37 0
-7 -8 -22 36 37 0
-1 -8 -23 36 -37 0
-1 -8 -23 36 37 0
-2 -8 -23 36 -37 0
-2 -8 -23 36 37 0
-3 -8 -23 36 -37 0
-3 -8 -23 36 37 0
-4 -8 -23 36 -37 0
-4 -8 -23 36 37 0
-5 -8 -23 36 37 0
-6 -8 -23 36 -37 0
-6 -8 -23 36 37 0
-7 -8 -23 36 -37 0
-7 -8 -23 36 37 0
-1 -8 -24 36 -37 0
-1 -8 -24 36 37 0
-2 -8 -24 36 -37 0
-2 -8 -24 36 37 0
-3 -8 -24 36 -37 0
-3 -8 -24 36 37 0
-4 -8 -24 36 -37 0
-4 -8 -24 36 37 0
-5 -8 -24 36 -37 0
-5 -8 -24 36 37 0
-6 -8 -24 36 37 0
-7 -8 -24 36 -37 0
-7 -8 -24 36 37 0
-1 -8 -25 36 -37 0
-1 -8 -25 36 37 0
-2 -8 -25 36 -37 0
-2 -8 -25 36 37 0
-3 -8 -25 36 -37 0
-3 -8 -25 36 37 0
-4 -8 -25 36 -37 0
-4 -8 -25 36 37 0
-5 -8 -25 36 -37 0
-5 -8 -25 36 37 0
-6 -8 -25 36 -37 0
-6 -8 -25 36 37 0
-7 -8 -25 36 37 0
-1 -8 -26 36 -37 0
-1 -8 -26 36 37 0
-2 -8 -26 36 -37 0
-2 -8 -26 36 37 0
-3 -8 -26 36 -37 0
-3 -8 -26 36 37 0
-4 -8 -26 36 -37 0
-4 -8 -26 36 37 0
-5 -8 -26 36 -37 0
-5 -8 -26 36 37 0
-6 -8 -26 36 -37 0
-6 -8 -26 36 37 0
-7 -8 -26 36 -37 0
-7 -8 -26 36 37 0
-1 -8 -27 36 -37 0
-1 -8 -27 36 37 0
-2 -8 -27 36 -37 0
-2 -8 -27 36 37 0
-3 -8 -27 36 -37 0
-3 -8 -27 36 37 0
-4 -8 -27 36 -37 0
-4 -8 -27 36 37 0
-5 -8 -27 36 -37 0
-5 -8 -27 36 37 0
-6 -8 -27 36 -37 0
-6 -8 -27 36 37 0
-7 -8 -27 36 -37 0
-7 -8 -27 36 37 0
-1 -8 -28 36 -37 0
-1 -8 -28 36 37 0
-2 -8 -28 36 -37 0
-2 -8 -28 36 37 0
-3 -8 -28 36 -37 0
-3 -8 -28 36 37 0
-4 -8 -28 36 -37 0
-4 -8 -28 36 37 0
-5 -8 -28 36 -37 0
-5 -8 -28 36 37 0
-6 -8 -28 36 -37 0
-6 -8 -28 36 37 0
-7 -8 -28 36 -37 0
-7 -8 -28 36 37 0
-1 -9 -22 36 -37 0
-1 -9 -22 36 37 0
-2 -9 -22 36 -37 0
-2 -9 -22 36 37 0
-3 -9 -22 36 -37 0
-3 -9 -22 36 37 0
-4 -9 -22 36 -37 0
-4 -9 -22 36 37 0
-5 -9 -22 36 37 0
-6 -9 -22 36 -37 0
-6 -9 -22 36 37 0
-7 -9 -22 36 -37 0
-7 -9 -22 36 37 0
-1 -9 -23 36 -37 0
-1 -9 -23 36 37 0
-2 -9 -23 36 -37 0
-2 -9 -23 36 37 0
-3 -9 -23 36 -37 0
-3 -9 -23 36 37 0
-4 -9 -23 36 -37 0
-4 -9 -23 36 37 0
-5 -9 -23 36 -37 0
-5 -9 -23 36 37 0
-6 -9 -23 36 37 0
-7 -9 -23 36 -37 0
-7 -9 -23 36 37 0
-1 -9 -24 36 -37 0
-1 -9 -24 36 37 0
-2 -9 -24 36 -37 0
-2 -9 -24 36 37 0
-3 -9 -24 36 -37 0
-3 -9 -24 36 37 0
-4 -9 -24 36 -37 0
-4 -9 -24 36 37 0
-5 -9 -24 36 -37 0
-5 -9 -24 36 37 0
-6 -9 -24 36 -37 0
-6 -9 -24 36 37 0
-7 -9 -24 36 37 0
-1 -9 -25 36 -37 0
-1 -9 -25 36 37 0
-2 -9 -25 36 -37 0
-2 -9 -25 36 37 0
-3 -9 -25 36 -37 0
-3 -9 -25 36 37 0
-4 -9 -25 36 -37 0
-4 -9 -25 36 37 0
-5 -9 -25 36 -37 0
-5 -9 -25 36 37 0
-6 -9 -25 36 -37 0
-6 -9 -25 36 37 0
-7 -9 -25 36 -37 0
-7 -9 -25 36 37 0
-1 -9 -26 36 -37 0
-1 -9 -26 36 37 0
-2 -9 -26 36 -37 0
-2 -9 -26 36 37 0
-3 -9 -26 36 -37 0
-3 -9 -26 36 37 0
-4 -9 -26 36 -37 0
-4 -9 -26 36 37 0
-5 -9 -26 36 -37 0
-5 -9 -26 36 37 0
-6 -9 -26 36 -37 0
-6 -9 -26 36 37 0
-7 -9 -26 36 -37 0
-7 -9 -26 36 37 0
-1 -9 -27 36 -37 0
-1 -9 -27 36 37 0
-2 -9 -27 36 -37 0
-2 -9 -27 36 37 0
-3 -9 -27 36 -37 0
-3 -9 -27 36 37 0
-4 -9 -27 36 -37 0
-4 -9 -27 36 37 0
-5 -9 -27 36 -37 0
-5 -9 -27 36 37 0
-6 -9 -27 36 -37 0
-6 -9 -27 36 37 0
-7 -9 -27 36 -37 0
-7 -9 -27 36 37 0
-1 -9 -28 36 -37 0
-2 -9 -28 36 -37 0
-2 -9 -28 36 37 0
-3 -9 -28 36 -37 0
-3 -9 -28 36 37 0
-4 -9 -28 36 -37 0
-4 -9 -28 36 37 0
-5 -9 -28 36 -37 0
-5 -9 -28 36 37 0
-6 -9 -28 36 -37 0
-6 -9 -28 36 37 0
-7 -9 -28 36 -37 0
-7 -9 -28 36 37 0
-1 -10 -22 36 -37 0
-1 -10 -22 36 37 0
-2 -10 -22 36 -37 0
-2 -10 -22 36 37 0
-3 -10 -22 36 -37 0
-3 -10 -22 36 37 0
-4 -10 -22 36 -37 0
-4 -10 -22 36 37 0
-5 -10 -22 36 -37 0
-5 -10 -22 36 37 0
-6 -10 -22 36 37 0
-7 -10 -22 36 -37 0
-7 -10 -22 36 37 0
-1 -10 -23 36 -37 0
-1 -10 -23 36 37 0
-2 -10 -23 36 -37 0
-2 -10 -23 36 37 0
-3 -10 -23 36 -37 0
-3 -10 -23 36 37 0
-4 -10 -23 36 -37 0
-4 -10 -23 36 37 0
-5 -10 -23 36 -37 0
-5 -10 -23 36 37 0
-6 -10 -23 36 -37 0
-6 -10 -23 36 37 0
-7 -10 -23 36 37 0
-1 -10 -24 36 -37 0
-1 -10 -24 36 37 0
-2 -10 -24 36 -37 0
-2 -10 -24 36 37 0
-3 -10 -24 36 -37 0
-3 -10 -24 36 37 0
-4 -10 -24 36 -37 0
-4 -10 -24 36 37 0
-5 -10 -24 36 -37 0
-5 -10 -24 36 37 0
-6 -10 -24 36 -37 0
-6 -10 -24 36 37 0
-7 -10 -24 36 -37 0
-7 -10 -24 36 37 0
-1 -10 -25 36 -37 0
-1 -10 -25 36 37 0
-2 -10 -25 36 -37 0
-2 -10 -25 36 37 0
-3 -10 -25 36 -37 0
-3 -10 -25 36 37 0
-4 -10 -25 36 -37 0
-4 -10 -25 36 37 0
-5 -10 -25 36 -37 0
-5 -10 -25 36 37 0
-6 -10 -25 36 -37 0
-6 -10 -25 36 37 0
-7 -10 -25 36 -37 0
-7 -10 -25 36 37 0
-1 -10 -26 36 -37 0
-1 -10 -26 36 37 0
-2 -10 -26 36 -37 0
-2 -10 -26 36 37 0
-3 -10 -26 36 -37 0
-3 -10 -26 36 37 0
-4 -10 -26 36 -37 0
-4 -10 -26 36 37 0
-5 -10 -26 36 -37 0
-5 -10 -26 36 37 0
-6 -10 -26 36 -37 0
-6 -10 -26 36 37 0
-7 -10 -26 36 -37 0
-7 -10 -26 36 37 0
-1 -10 -27 36 -37 0
-2 -10 -27 36 -37 0
-2 -10 -27 36 37 0
-3 -10 -27 36 -37 0
-3 -10 -27 36 37 0
-4 -10 -27 36 -37 0
-4 -10 -27 36 37 0
-5 -10 -27 36 -37 0
-5 -10 -27 36 37 0
-6 -10 -27 36 -37 0
-6 -10 -27 36 37 0
-7 -10 -27 36 -37 0
-7 -10 -27 36 37 0
-1 -10 -28 36 -37 0
-1 -10 -28 36 37 0
-2 -10 -28 36 -37 0
-3 -10 -28 36 -37 0
-3 -10 -28 36 37 0
-4 -10 -28 36 -37 0
-4 -10 -28 36 37 0
-5 -10 -28 36 -37 0
-5 -10 -28 36 37 0
-6 -10 -28 36 -37 0
-6 -10 -28 36 37 0
-7 -10 -28 36 -37 0
-7 -10 -28 36 37 0
-1 -11 -22 36 -37 0
-1 -11 -22 36 37 0
-2 -11 -22 36 -37 0
-2 -11 -22 36 37 0
-3 -11 -22 36 -37 0
-3 -11 -22 36 37 0
-4 -11 -22 36 -37 0
-4 -11 -22 36 37 0
-5 -11 -22 36 -37 0
-5 -11 -22 36 37 0
-6 -11 -22 36 -37 0
-6 -11 -22 36 37 0
-7 -11 -22 36 37 0
-1 -11 -23 36 -37 0
-1 -11 -23 36 37 0
-2 -11 -23 36 -37 0
-2 -11 -23 36 37 0
-3 -11 -23 36 -37 0
-3 -11 -23 36 37 0
-4 -11 -23 36 -37 0
-4 -11 -23 36 37 0
-5 -11 -23 36 -37 0
-5 -11 -23 36 37 0
-6 -11 -23 36 -37 0
-6 -11 -23 36 37 0
-7 -11 -23 36 -37 0
-7 -11 -23 36 37 0
-1 -11 -24 36 -37 0
-1 -11 -24 36 37 0
-2 -11 -24 36 -37 0
-2 -11 -24 36 37 0
-3 -11 -24 36 -37 0
-3 -11 -24 36 37 0
-4 -11 -24 36 -37 0
-4 -11 -24 36 37 0
-5 -11 -24 36 -37 0
-5 -11 -24 36 37 0
-6 -11 -24 36 -37 0
-6 -11 -24 36 37 0
-7 -11 -24 36 -37 0
-7 -11 -24 36 37 0
-1 -11 -25 36 -37 0
-1 -11 -25 36 37 0
-2 -11 -25 36 -37 0
-2 -11 -25 36 37 0
-3 -11 -25 36 -37 0
-3 -11 -25 36 37 0
-4 -11 -25 36 -37 0
-4 -11 -25 36 37 0
-5 -11 -25 36 -37 0
-5 -11 -25 36 37 0
-6 -11 -25 36 -37 0
-6 -11 -25 36 37 0
-7 -11 -25 36 -37 0
-7 -11 -25 36 37 0
-1 -11 -26 36 -37 0
-2 -11 -26 36 -37 0
-2 -11 -26 36 37 0
-3 -11 -26 36 -37 0
-3 -11 -26 36 37 0
-4 -11 -26 36 -37 0
-4 -11 -26 36 37 0
-5 -11 -26 36 -37 0
-5 -11 -26 36 37 0
-6 -11 -26 36 -37 0
-6 -11 -26 36 37 0
-7 -11 -26 36 -37 0
-7 -11 -26 36 37 0
-1 -11 -27 36 -37 0
-1 -11 -27 36 37 0
-2 -11 -27 36 -37 0
-3 -11 -27 36 -37 0
-3 -11 -27 36 37 0
-4 -11 -27 36 -37 0
-4 -11 -27 36 37 0
-5 -11 -27 36 -37 0
-5 -11 -27 36 37 0
-6 -11 -27 36 -37 0
-6 -11 -27 36 37 0
-7 -11 -27 36 -37 0
-7 -11 -27 36 37 0
-1 -11 -28 36 -37 0
-1 -11 -28 36 37 0
-2 -11 -28 36 -37 0
-2 -11 -28 36 37 0
-3 -11 -28 36 -37 0
-4 -11 -28 36 -37 0
-4 -11 -28 36 37 0
-5 -11 -28 36 -37 0
-5 -11 -28 36 37 0
-6 -11 -28 36 -37 0
-6 -11 -28 36 37 0
-7 -11 -28 36 -37 0
-7 -11 -28 36 37 0
-1 -12 -22 36 -37 0
-1 -12 -22 36 37 0
-2 -12 -22 36 -37 0
-2 -12 -22 36 37 0
-3 -12 -22 36 -37 0
-3 -12 -22 36 37 0
-4 -12 -22 36 -37 0
-4 -12 -22 36 37 0
-5 -12 -22 36 -37 0
-5 -12 -22 36 37 0
-6 -12 -22 36 -37 0
-6 -12 -22 36 37 0
-7 -12 -22 36 -37 0
-7 -12 -22 36 37 0
-1 -12 -23 36 -37 0
-1 -12 -23 36 37 0
-2 -12 -23 36 -37 0
-2 -12 -23 36 37 0
-3 -12 -23 36 -37 0
-3 -12 -23 36 37 0
-4 -12 -23 36 -37 0
-4 -12 -23 36 37 0
-5 -12 -23 36 -37 0
-5 -12 -23 36 37 0
-6 -12 -23 36 -37 0
-6 -12 -23 36 37 0
-7 -12 -23 36 -37 0
-7 -12 -23 36 37 0
-1 -12 -24 36 -37 0
-1 -12 -24 36 37 0
-2 -12 -24 36 -37 0
-2 -12 -24 36 37 0
-3 -12 -24 36 -37 0
-3 -12 -24 36 37 0
-4 -12 -24 36 -37 0
-4 -12 -24 36 37 0
-5 -12 -24 36 -37 0
-5 -12 -24 36 37 0
-6 -12 -24 36 -37 0
-6 -12 -24 36 37 0
-7 -12 -24 36 -37 0
-7 -12 -24 36 37 0
-1 -12 -25 36 -37 0
-2 -12 -25 36 -37 0
-2 -12 -25 36 37 0
-3 -12 -25 36 -37 0
-3 -12 -25 36 37 0
-4 -12 -25 36 -37 0
-4 -12 -25 36 37 0
-5 -12 -25 36 -37 0
-5 -12 -25 36 37 0
-6 -12 -25 36 -37 0
-6 -12 -25 36 37 0
-7 -12 -25 36 -37 0
-7 -12 -25 36 37 0
-1 -12 -26 36 -37 0
-1 -12 -26 36 37 0
-2 -12 -26 36 -37 0
-3 -12 -26 36 -37 0
-3 -12 -26 36 37 0
-4 -12 -26 36 -37 0
-4 -12 -26 36 37 0
-5 -12 -26 36 -37 0
-5 -12 -26 36 37 0
-6 -12 -26 36 -37 0
-6 -12 -26 36 37 0
-7 -12 -26 36 -37 0
-7 -12 -26 36 37 0
-1 -12 -27 36 -37 0
-1 -12 -27 36 37 0
-2 -12 -27 36 -37 0
-2 -12 -27 36 37 0
-3 -12 -27 36 -37 0
-4 -12 -27 36 -37 0
-4 -12 -27 36 37 0
-5 -12 -27 36 -37 0
-5 -12 -27 36 37 0
-6 -12 -27 36 -37 0
-6 -12 -27 36 37 0
-7 -12 -27 36 -37 0
-7 -12 -27 36 37 0
-1 -12 -28 36 -37 0
-1 -12 -28 36 37 0
-2 -12 -28 36 -37 0
-2 -12 -28 36 37 0
-3 -12 -28 36 -37 0
-3 -12 -28 36 37 0
-4 -12 -28 36 -37 0
-5 -12 -28 36 -37 0
-5 -12 -28 36 37 0
-6 -12 -28 36 -37 0
-6 -12 -28 36 37 0
-7 -12 -28 36 -37 0
-7 -12 -28 36 37 0
-1 -13 -22 36 -37 0
-1 -13 -22 36 37 0
-2 -13 -22 36 -37 0
-2 -13 -22 36 37 0
-3 -13 -22 36 -37 0
-3 -13 -22 36 37 0
-4 -13 -22 36 -37 0
-4 -13 -22 36 37 0
-5 -13 -22 36 -37 0
-5 -13 -22 36 37 0
-6 -13 -22 36 -37 0
-6 -13 -22 36 37 0
-7 -13 -22 36 -37 0
-7 -13 -22 36 37 0
-1 -13 -23 36 -37 0
-1 -13 -23 36 37 0
-2 -13 -23 36 -37 0
-2 -13 -23 36 37 0
-3 -13 -23 36 -37 0
-3 -13 -23 36 37 0
-4 -13 -23 36 -37 0
-4 -13 -23 36 37 0
-5 -13 -23 36 -37 0
-5 -13 -23 36 37 0
-6 -13 -23 36 -37 0
-6 -13 -23 36 37 0
-7 -13 -23 36 -37 0
-7 -13 -23 36 37 0
-1 -13 -24 36 -37 0
-2 -13 -24 36 -37 0
-2 -13 -24 36 37 0
-3 -13 -24 36 -37 0
-3 -13 -24 36 37 0
-4 -13 -24 36 -37 0
-4 -13 -24 36 37 0
-5 -13 -24 36 -37 0
-5 -13 -24 36 37 0
-6 -13 -24 36 -37 0
-6 -13 -24 36 37 0
-7 -13 -24 36 -37 0
-7 -13 -24 36 37 0
-1 -13 -25 36 -37 0
-1 -13 -25 36 37 0
-2 -13 -25 36 -37 0
-3 -13 -25 36 -37 0
-3 -13 -25 36 37 0
-4 -13 -25 36 -37 0
-4 -13 -25 36 37 0
-5 -13 -25 36 -37 0
-5 -13 -25 36 37 0
-6 -13 -25 36 -37 0
-6 -13 -25 36 37 0
-7 -13 -25 36 -37 0
-7 -13 -25 36 37 0
-1 -13 -26 36 -37 0
-1 -13 -26 36 37 0
-2 -13 -26 36 -37 0
-2 -13 -26 36 37 0
-3 -13 -26 36 -37 0
-4 -13 -26 36 -37 0
-4 -13 -26 36 37 0
-5 -13 -26 36 -37 0
-5 -13 -26 36 37 0
-6 -13 -26 36 -37 0
-6 -13 -26 36 37 0
-7 -13 -26 36 -37 0
-7 -13 -26 36 37 0
-1 -13 -27 36 -37 0
-1 -13 -27 36 37 0
-2 -13 -27 36 -37 0
-2 -13 -27 36 37 0
-3 -13 -27 36 -37 0
-3 -13 -27 36 37 0
-4 -13 -27 36 -37 0
-5 -13 -27 36 -37 0
-5 -13 -27 36 37 0
-6 -13 -27 36 -37 0
-6 -13 -27 36 37 0
-7 -13 -27 36 -37 0
-7 -13 -27 36 37 0
-1 -13 -28 36 -37 0
-1 -13 -28 36 37 0
-2 -13 -28 36 -37 0
-2 -13 -28 36 37 0
-3 -13 -28 36 -37 0
-3 -13 -28 36 37 0
-4 -13 -28 36 -37 0
-4 -13 -28 36 37 0
-5 -13 -28 36 -37 0
-6 -13 -28 36 -37 0
-6 -13 -28 36 37 0
-7 -13 -28 36 -37 0
-7 -13 -28 36 37 0
-1 -14 -22 36 -37 0
-1 -14 -22 36 37 0
-2 -14 -22 36 -37 0
-2 -14 -22 36 37 0
-3 -14 -22 36 -37 0
-3 -14 -22 36 37 0
-4 -14 -22 36 -37 0
-4 -14 -22 36 37 0
-5 -14 -22 36 -37 0
-5 -14 -22 36 37 0
-6 -14 -22 36 -37 0
-6 -14 -22 36 37 0
-7 -14 -22 36 -37 0
-7 -14 -22 36 37 0
-1 -14 -23 36 -37 0
-2 -14 -23 36 -37 0
-2 -14 -23 36 37 0
-3 -14 -23 36 -37 0
-3 -14 -23 36 37 0
-4 -14 -23 36 -37 0
-4 -14 -23 36 37 0
-5 -14 -23 36 -37 0
-5 -14 -23 36 37 0
-6 -14 -23 36 -37 0
-6 -14 -23 36 37 0
-7 -14 -23 36 -37 0
-7 -14 -23 36 37 0
-1 -14 -24 36 -37 0
-1 -14 -24 36 37 0
-2 -14 -24 36 -37 0
-3 -14 -24 36 -37 0
-3 -14 -24 36 37 0
-4 -14 -24 36 -37 0
-4 -14 -24 36 37 0
-5 -14 -24 36 -37 0
-5 -14 -24 36 37 0
-6 -14 -24 36 -37 0
-6 -14 -24 36 37 0
-7 -14 -24 36 -37 0
-7 -14 -24 36 37 0
-1 -14 -25 36 -37 0
-1 -14 -25 36 37 0
-2 -14 -25 36 -37 0
-2 -14 -25 36 37 0
-3 -14 -25 36 -37 0
-4 -14 -25 36 -37 0
-4 -14 -25 36 37 0
-5 -14 -25 36 -37 0
-5 -14 -25 36 37 0
-6 -14 -25 36 -37 0
-6 -14 -25 36 37 0
-7 -14 -25 36 -37 0
-7 -14 -25 36 37 0
-1 -14 -26 36 -37 0
-1 -14 -26 36 37 0
-2 -14 -26 36 -37 0
-2 -14 -26 36 37 0
-3 -14 -26 36 -37 0
-3 -14 -26 36 37 0
-4 -14 -26 36 -37 0
-5 -14 -26 36 -37 0
-5 -14 -26 36 37 0
-6 -14 -26 36 -37 0
-6 -14 -26 36 37 0
-7 -14 -26 36 -37 0
-7 -14 -26 36 37 0
-1 -14 -27 36 -37 0
-1 -14 -27 36 37 0
-2 -14 -27 36 -37 0
-2 -14 -27 36 37 0
-3 -14 -27 36 -37 0
-3 -14 -27 36 37 0
-4 -14 -27 36 -37 0
-4 -14 -27 36 37 0
-5 -14 -27 36 -37 0
-6 -14 -27 36 -37 0
-6 -14 -27 36 37 0
-7 -14 -27 36 -37 0
-7 -14 -27 36 37 0
-1 -14 -28 36 -37 0
-1 -14 -28 36 37 0
-2 -14 -28 36 -37 0
-2 -14 -28 36 37 0
-3 -14 -28 36 -37 0
-3 -14 -28 36 37 0
-4 -14 -28 36 -37 0
-4 -14 -28 36 37 0
-5 -14 -28 36 -37 0
-5 -14 -28 36 37 0
-6 -14 -28 36 -37 0
-7 -14 -28 36 -37 0
-7 -14 -28 36 37 0
-1 -9 -37 0
-1 -10 -37 0
-1 -11 -37 0
-1 -12 -37 0
-1 -13 -37 0
-1 -14 -37 0
-2 -8 -37 0
-2 -10 -37 0
-2 -11 -37 0
-2 -12 -37 0
-2 -13 -37 0
-2 -14 -37 0
-3 -8 -37 0
-3 -9 -37 0
-3 -11 -37 0
-3 -12 -37 0
-3 -13 -37 0
-3 -14 -37 0
-4 -8 -37 0
-4 -9 -37 0
-4 -10 -37 0
-4 -12 -37 0
-4 -13 -37 0
-4 -14 -37 0
-5 -8 -37 0
-5 -9 -37 0
-5 -10 -37 0
-5 -11 -37 0
-5 -13 -37 0
-5 -14 -37 0
-6 -8 -37 0
-6 -9 -37 0
-6 -10 -37 0
-6 -11 -37 0
-6 -12 -37 0
-6 -14 -37 0
-7 -8 -37 0
-7 -9 -37 0
-7 -10 -37 0
-7 -11 -37 0
-7 -12 -37 0
-7 -13 -37 0
-1 -8 37 0
-1 -10 37 0
-1 -11 37 0
-1 -12 37 0
-1 -13 37 0
-1 -14 37 0
-2 -8 37 0
-2 -9 37 0
-2 -11 37 0
-2 -12 37 0
-2 -13 37 0
-2 -14 37 0
-3 -8 37 0
-3 -9 37 0
-3 -10 37 0
-3 -12 37 0
-3 -13 37 0
-3 -14 37 0
-4 -8 37 0
-4 -9 37 0
-4 -10 37 0
-4 -11 37 0
-4 -13 37 0
-4 -14 37 0
-5 -8 37 0
-5 -9 37 0
-5 -10 37 0
-5 -11 37 0
-5 -12 37 0
-5 -14 37 0
-6 -8 37 0
-6 -9 37 0
-6 -10 37 0
-6 -11 37 0
-6 -12 37 0
-6 -13 37 0
-7 -8 37 0
-7 -9 37 0
-7 -10 37 0
-7 -11 37 0
-7 -12 37 0
-7 -13 37 0
-7 -14 37 0
-1 -8 0
-2 -9 0
-3 -10 0
-4 -11 0
-5 -12 0
-6 -13 0
-7 -14 0
-1 -15 0
-2 -16 0
-3 -17 0
-4 -18 0
-5 -19 0
-6 -20 0
-7 -21 0
-1 -22 0
-2 -23 0
-3 -24 0
-4 -25 0
-5 -26 0
-6 -27 0
-7 -28 0
-1 -29 0
-2 -30 0
-3 -31 0
-4 -32 0
-5 -33 0
-6 -34 0
-7 -35 0
-8 -15 0
-9 -16 0
-10 -17 0
-11 -18 0
-12 -19 0
-13 -20 0
-14 -21 0
-8 -22 0
-9 -23 0
-10 -24 0
-11 -25 0
-12 -26 0
-13 -27 0
-14 -28 0
-8 -29 0
-9 -30 0
-10 -31 0
-11 -32 0
-12 -33 0
-13 -34 0
-14 -35 0
-15 -22 0
-16 -23 0
-17 -24 0
-18 -25 0
-19 -26 0
-20 -27 0
-21 -28 0
-15 -29 0
-16 -30 0
-17 -31 0
-18 -32 0
-19 -33 0
-20 -34 0
-21 -35 0
-22 -29 0
-23 -30 0
-24 -31 0
-25 -32 0
-26 -33 0
-27 -34 0
-28 -35 0
